c generated by sgen1
c Command: ./sgen1 -unsat -n 133 -s 100 
p cnf 133 276
-2 -3 -4 0
-1 -3 -4 0
-1 -2 -4 0
-1 -2 -3 0
-6 -7 -8 0
-5 -7 -8 0
-5 -6 -8 0
-5 -6 -7 0
-10 -11 -12 0
-9 -11 -12 0
-9 -10 -12 0
-9 -10 -11 0
-14 -15 -16 0
-13 -15 -16 0
-13 -14 -16 0
-13 -14 -15 0
-18 -19 -20 0
-17 -19 -20 0
-17 -18 -20 0
-17 -18 -19 0
-22 -23 -24 0
-21 -23 -24 0
-21 -22 -24 0
-21 -22 -23 0
-26 -27 -28 0
-25 -27 -28 0
-25 -26 -28 0
-25 -26 -27 0
-30 -31 -32 0
-29 -31 -32 0
-29 -30 -32 0
-29 -30 -31 0
-34 -35 -36 0
-33 -35 -36 0
-33 -34 -36 0
-33 -34 -35 0
-38 -39 -40 0
-37 -39 -40 0
-37 -38 -40 0
-37 -38 -39 0
-42 -43 -44 0
-41 -43 -44 0
-41 -42 -44 0
-41 -42 -43 0
-46 -47 -48 0
-45 -47 -48 0
-45 -46 -48 0
-45 -46 -47 0
-50 -51 -52 0
-49 -51 -52 0
-49 -50 -52 0
-49 -50 -51 0
-54 -55 -56 0
-53 -55 -56 0
-53 -54 -56 0
-53 -54 -55 0
-58 -59 -60 0
-57 -59 -60 0
-57 -58 -60 0
-57 -58 -59 0
-62 -63 -64 0
-61 -63 -64 0
-61 -62 -64 0
-61 -62 -63 0
-66 -67 -68 0
-65 -67 -68 0
-65 -66 -68 0
-65 -66 -67 0
-70 -71 -72 0
-69 -71 -72 0
-69 -70 -72 0
-69 -70 -71 0
-74 -75 -76 0
-73 -75 -76 0
-73 -74 -76 0
-73 -74 -75 0
-78 -79 -80 0
-77 -79 -80 0
-77 -78 -80 0
-77 -78 -79 0
-82 -83 -84 0
-81 -83 -84 0
-81 -82 -84 0
-81 -82 -83 0
-86 -87 -88 0
-85 -87 -88 0
-85 -86 -88 0
-85 -86 -87 0
-90 -91 -92 0
-89 -91 -92 0
-89 -90 -92 0
-89 -90 -91 0
-94 -95 -96 0
-93 -95 -96 0
-93 -94 -96 0
-93 -94 -95 0
-98 -99 -100 0
-97 -99 -100 0
-97 -98 -100 0
-97 -98 -99 0
-102 -103 -104 0
-101 -103 -104 0
-101 -102 -104 0
-101 -102 -103 0
-106 -107 -108 0
-105 -107 -108 0
-105 -106 -108 0
-105 -106 -107 0
-110 -111 -112 0
-109 -111 -112 0
-109 -110 -112 0
-109 -110 -111 0
-114 -115 -116 0
-113 -115 -116 0
-113 -114 -116 0
-113 -114 -115 0
-118 -119 -120 0
-117 -119 -120 0
-117 -118 -120 0
-117 -118 -119 0
-122 -123 -124 0
-121 -123 -124 0
-121 -122 -124 0
-121 -122 -123 0
-126 -127 -128 0
-125 -127 -128 0
-125 -126 -128 0
-125 -126 -127 0
-129 -130 -131 0
-129 -130 -132 0
-129 -130 -133 0
-129 -131 -132 0
-129 -131 -133 0
-129 -132 -133 0
-130 -131 -132 0
-130 -131 -133 0
-130 -132 -133 0
-131 -132 -133 0
40 69 15 0
115 69 15 0
115 40 15 0
115 40 69 0
10 53 113 0
44 53 113 0
44 10 113 0
44 10 53 0
125 32 37 0
85 32 37 0
85 125 37 0
85 125 32 0
97 23 39 0
102 23 39 0
102 97 39 0
102 97 23 0
27 4 46 0
56 4 46 0
56 27 46 0
56 27 4 0
99 30 45 0
58 30 45 0
58 99 45 0
58 99 30 0
80 16 117 0
67 16 117 0
67 80 117 0
67 80 16 0
104 52 112 0
116 52 112 0
116 104 112 0
116 104 52 0
12 47 121 0
120 47 121 0
120 12 121 0
120 12 47 0
29 77 103 0
132 77 103 0
132 29 103 0
132 29 77 0
83 59 93 0
131 59 93 0
131 83 93 0
131 83 59 0
105 57 19 0
13 57 19 0
13 105 19 0
13 105 57 0
84 122 114 0
6 122 114 0
6 84 114 0
6 84 122 0
88 118 71 0
90 118 71 0
90 88 71 0
90 88 118 0
3 11 79 0
128 11 79 0
128 3 79 0
128 3 11 0
22 107 126 0
91 107 126 0
91 22 126 0
91 22 107 0
109 95 66 0
100 95 66 0
100 109 66 0
100 109 95 0
68 92 123 0
43 92 123 0
43 68 123 0
43 68 92 0
124 72 133 0
110 72 133 0
110 124 133 0
110 124 72 0
82 18 55 0
36 18 55 0
36 82 55 0
36 82 18 0
86 101 106 0
81 101 106 0
81 86 106 0
81 86 101 0
108 64 78 0
111 64 78 0
111 108 78 0
111 108 64 0
54 94 20 0
89 94 20 0
89 54 20 0
89 54 94 0
98 129 73 0
35 129 73 0
35 98 73 0
35 98 129 0
31 33 5 0
49 33 5 0
49 31 5 0
49 31 33 0
24 9 76 0
34 9 76 0
34 24 76 0
34 24 9 0
17 38 8 0
28 38 8 0
28 17 8 0
28 17 38 0
119 25 63 0
60 25 63 0
60 119 63 0
60 119 25 0
62 127 41 0
7 127 41 0
7 62 41 0
7 62 127 0
21 26 96 0
51 26 96 0
51 21 96 0
51 21 26 0
42 2 130 0
50 2 130 0
50 42 130 0
50 42 2 0
48 87 75 0
14 87 75 0
14 48 75 0
14 48 87 0
70 74 1 0
70 74 61 0
70 74 65 0
70 1 61 0
70 1 65 0
70 61 65 0
74 1 61 0
74 1 65 0
74 61 65 0
1 61 65 0
